20	18	13	2	20	2	19	20	8	20	8	6	12	7	12	2	4	4	20	17
8	12	14	4	20	17	10	2	14	20	2	12	1	9	15	9	18	18	16	7
11	12	18	2	2	19	6	20	6	15	13	1	13	10	1	1	5	4	15	1
16	18	18	15	4	4	14	12	11	10	3	1	8	14	17	18	14	16	17	17
12	17	12	9	17	19	7	14	12	19	3	13	17	16	3	13	13	19	18	1
4	1	16	3	3	13	14	12	16	4	15	13	11	16	4	3	15	16	12	19
4	11	1	15	10	15	2	10	5	1	8	19	9	13	17	18	16	11	5	2
5	18	6	12	14	11	6	18	13	10	10	10	19	9	1	9	1	13	20	15
15	10	16	20	5	10	14	18	12	8	12	14	12	1	6	13	11	14	19	8
